
Gurobi 9.5.0 (linux64) logging started Wed Nov  8 21:38:18 2023

Set parameter LogFile to value "/lustre1/scratch/348/vsc34888/JointResearch/05.Models/06.Benchmarking/G.Representative_days_based_on_Line_Benefit_NN_OC_fy_2/RTS24_ByStages_nc10/openStarNet_RTS24_ByStages_nc10.log"
Set parameter Method to value 2
Set parameter MIPFocus to value 1
Set parameter Presolve to value 2
Set parameter RINS to value 100
Set parameter MIPGap to value 0.01
Set parameter Threads to value 36
Set parameter TimeLimit to value 604800
Set parameter IterationLimit to value 760000000
Gurobi Optimizer version 9.5.0 build v9.5.0rc5 (linux64)
Thread count: 36 physical cores, 36 logical processors, using up to 36 threads
Optimize a model with 4453 rows, 2627 columns and 12342 nonzeros
Model fingerprint: 0x4098afe3
Variable types: 2588 continuous, 39 integer (39 binary)
Coefficient statistics:
  Matrix range     [3e-02, 3e+03]
  Objective range  [1e+00, 1e+00]
  Bounds range     [4e-04, 3e+00]
  RHS range        [4e-04, 3e+00]
Presolve removed 2173 rows and 1114 columns
Presolve time: 0.01s
Presolved: 2280 rows, 1513 columns, 7944 nonzeros
Variable types: 1474 continuous, 39 integer (39 binary)
Found heuristic solution: objective 133.5870554
Root relaxation presolved: 2280 rows, 1513 columns, 7944 nonzeros

Root barrier log...

Ordering time: 0.03s

Barrier statistics:
 AA' NZ     : 4.339e+04
 Factor NZ  : 3.327e+05 (roughly 4 MB of memory)
 Factor Ops : 7.027e+07 (less than 1 second per iteration)
 Threads    : 36

                  Objective                Residual
Iter       Primal          Dual         Primal    Dual     Compl     Time
   0   5.65541518e+05 -3.95367861e+07  4.17e+00 1.16e+03  2.33e+04     0s
   1   3.94835895e+04 -1.02553309e+07  2.84e-01 8.18e-11  2.75e+03     0s
   2   7.98464048e+03 -9.04003778e+05  6.80e-03 1.05e-10  1.96e+02     0s
   3   4.51941137e+03 -3.97768907e+04  1.62e-13 1.46e-11  9.37e+00     0s
   4   9.43049865e+02 -5.57184372e+03  3.67e-13 7.28e-12  1.38e+00     0s
   5   3.92408216e+02 -1.53935872e+03  1.69e-13 7.28e-12  4.09e-01     0s
   6   1.87720909e+02 -4.47858048e+02  1.68e-13 3.64e-12  1.34e-01     0s
   7   1.30800092e+02 -8.13739920e+01  1.84e-13 3.64e-12  4.49e-02     0s
   8   9.26123240e+01  2.74962644e+01  1.49e-13 3.64e-12  1.38e-02     0s
   9   8.35320844e+01  5.96209279e+01  1.19e-13 3.64e-12  5.06e-03     0s
  10   7.81113160e+01  7.31270485e+01  2.91e-13 3.64e-12  1.05e-03     0s
  11   7.65578204e+01  7.53971711e+01  4.27e-12 1.82e-12  2.46e-04     0s
  12   7.61162011e+01  7.58132838e+01  3.35e-12 3.64e-12  6.41e-05     0s
  13   7.59845963e+01  7.59287356e+01  9.55e-12 7.28e-12  1.18e-05     0s
  14   7.59670659e+01  7.59589758e+01  1.40e-11 7.28e-12  1.71e-06     0s
  15   7.59646673e+01  7.59631459e+01  1.45e-10 3.64e-12  3.22e-07     0s
  16   7.59643930e+01  7.59643782e+01  1.26e-10 3.64e-12  3.13e-09     0s
  17   7.59643892e+01  7.59643892e+01  6.23e-11 3.64e-12  1.71e-13     0s

Barrier solved model in 17 iterations and 0.33 seconds (0.08 work units)
Optimal objective 7.59643892e+01


Root relaxation: objective 7.596439e+01, 188 iterations, 0.30 seconds (0.05 work units)

    Nodes    |    Current Node    |     Objective Bounds      |     Work
 Expl Unexpl |  Obj  Depth IntInf | Incumbent    BestBd   Gap | It/Node Time

     0     0   75.96439    0   12  133.58706   75.96439  43.1%     -    0s
H    0     0                      89.8263391   75.96439  15.4%     -    0s
     0     0   78.88101    0   10   89.82634   78.88101  12.2%     -    0s
     0     0   79.51347    0   10   89.82634   79.51347  11.5%     -    0s
     0     0   79.51993    0   10   89.82634   79.51993  11.5%     -    0s
     0     0   79.51993    0   10   89.82634   79.51993  11.5%     -    0s
     0     0   79.91385    0   11   89.82634   79.91385  11.0%     -    0s
     0     0   79.91760    0   10   89.82634   79.91760  11.0%     -    0s
     0     0   79.91862    0   10   89.82634   79.91862  11.0%     -    0s
     0     0   79.91934    0   10   89.82634   79.91934  11.0%     -    0s
     0     0   79.92007    0   10   89.82634   79.92007  11.0%     -    0s
     0     0   79.97624    0   10   89.82634   79.97624  11.0%     -    0s
     0     0   80.06330    0   10   89.82634   80.06330  10.9%     -    0s
     0     0   80.09308    0   10   89.82634   80.09308  10.8%     -    0s
     0     0   80.10339    0   10   89.82634   80.10339  10.8%     -    0s
     0     0   80.16475    0   10   89.82634   80.16475  10.8%     -    0s
     0     0   80.17320    0   10   89.82634   80.17320  10.7%     -    0s
     0     0   80.19577    0   10   89.82634   80.19577  10.7%     -    0s
H    0     0                      89.7589074   80.19729  10.7%     -    0s
     0     0   80.19729    0   10   89.75891   80.19729  10.7%     -    0s
     0     0   80.19736    0   10   89.75891   80.19736  10.7%     -    0s
     0     0   80.71454    0   10   89.75891   80.71454  10.1%     -    0s
H    0     0                      87.3784982   80.71454  7.63%     -    1s
     0     2   80.71454    0   10   87.37850   80.71454  7.63%     -    1s

Cutting planes:
  Gomory: 5
  Implied bound: 5
  MIR: 64
  Relax-and-lift: 3

Explored 224 nodes (7637 simplex iterations) in 1.50 seconds (0.97 work units)
Thread count was 36 (of 36 available processors)

Solution count 4: 87.3785 89.7589 89.8263 133.587 

Optimal solution found (tolerance 1.00e-02)
Best objective 8.737849822033e+01, best bound 8.701538697303e+01, gap 0.4156%

Gurobi 9.5.0 (linux64) logging started Wed Nov  8 21:38:20 2023

Set parameter LogFile to value "/lustre1/scratch/348/vsc34888/JointResearch/05.Models/06.Benchmarking/G.Representative_days_based_on_Line_Benefit_NN_OC_fy_2/RTS24_ByStages_nc10/openStarNet_RTS24_ByStages_nc10.log"
Set parameter Method to value 2
Set parameter MIPFocus to value 1
Set parameter Presolve to value 2
Set parameter RINS to value 100
Set parameter MIPGap to value 0.01
Set parameter Threads to value 36
Set parameter TimeLimit to value 604800
Set parameter IterationLimit to value 760000000
No parameters matching 'relax_integrality' found
Gurobi Optimizer version 9.5.0 build v9.5.0rc5 (linux64)
Thread count: 36 physical cores, 36 logical processors, using up to 36 threads
Optimize a model with 4453 rows, 2588 columns and 10743 nonzeros
Model fingerprint: 0xc8a58114
Coefficient statistics:
  Matrix range     [3e-02, 3e+03]
  Objective range  [1e+00, 1e+00]
  Bounds range     [4e-04, 3e+00]
  RHS range        [4e-04, 3e+01]
Presolve removed 3523 rows and 1214 columns
Presolve time: 0.01s
Presolved: 930 rows, 1394 columns, 3434 nonzeros

Ordering time: 0.00s

Barrier statistics:
 AA' NZ     : 2.405e+03
 Factor NZ  : 1.030e+04 (roughly 1 MB of memory)
 Factor Ops : 1.578e+05 (less than 1 second per iteration)
 Threads    : 1

                  Objective                Residual
Iter       Primal          Dual         Primal    Dual     Compl     Time
   0   1.00663163e+06 -2.45504860e+08  3.11e+00 1.83e+03  1.85e+05     0s
   1   9.13157525e+04 -3.35913043e+07  2.52e-01 1.47e-10  1.77e+04     0s
   2   4.25300610e+04 -3.86772016e+06  6.82e-02 1.22e-10  1.91e+03     0s
   3   2.32570006e+04 -2.98428691e+05  3.04e-05 9.56e-11  1.34e+02     0s
   4   6.41948406e+03 -3.59568858e+04  7.61e-13 7.47e-11  1.77e+01     0s
   5   1.25219834e+03 -8.57976524e+03  7.88e-13 3.10e-11  4.10e+00     0s
   6   3.47971275e+02 -1.08603363e+03  5.08e-13 1.46e-11  5.98e-01     0s
   7   1.82944060e+02 -2.32458347e+02  3.38e-13 2.91e-11  1.73e-01     0s
   8   1.14136778e+02  2.86465297e+01  1.97e-13 2.91e-11  3.56e-02     0s
   9   9.49384726e+01  7.74100644e+01  4.52e-13 2.91e-11  7.30e-03     0s
  10   8.98768626e+01  8.45763831e+01  1.35e-11 1.46e-11  2.21e-03     0s
  11   8.82288838e+01  8.67897688e+01  5.38e-12 2.91e-11  6.00e-04     0s
  12   8.77122383e+01  8.71972008e+01  1.11e-11 1.46e-11  2.15e-04     0s
  13   8.73805838e+01  8.73705415e+01  3.78e-12 5.82e-11  4.18e-06     0s
  14   8.73785004e+01  8.73784901e+01  2.72e-12 2.91e-11  4.28e-09     0s
  15   8.73784982e+01  8.73784982e+01  3.76e-12 2.91e-11  4.28e-12     0s
  16   8.73784982e+01  8.73784982e+01  2.58e-12 2.91e-11  1.68e-16     0s

Barrier solved model in 16 iterations and 0.02 seconds (0.01 work units)
Optimal objective 8.73784982e+01

Crossover log...

     125 DPushes remaining with DInf 0.0000000e+00                 0s
       0 DPushes remaining with DInf 0.0000000e+00                 0s

      43 PPushes remaining with PInf 0.0000000e+00                 0s
       0 PPushes remaining with PInf 0.0000000e+00                 0s

  Push phase complete: Pinf 0.0000000e+00, Dinf 1.7751277e-12      0s

Iteration    Objective       Primal Inf.    Dual Inf.      Time
      51    8.7378498e+01   0.000000e+00   0.000000e+00      0s

Use crossover to convert LP symmetric solution to basic solution...
Crossover log...

       0 DPushes remaining with DInf 0.0000000e+00                 0s

      30 PPushes remaining with PInf 0.0000000e+00                 0s
       0 PPushes remaining with PInf 0.0000000e+00                 0s

  Push phase complete: Pinf 0.0000000e+00, Dinf 1.4701351e-12      0s

Iteration    Objective       Primal Inf.    Dual Inf.      Time
      87    8.7378498e+01   0.000000e+00   0.000000e+00      0s

Solved in 87 iterations and 0.03 seconds (0.02 work units)
Optimal objective  8.737849822e+01
